; QF_UF benchmark: chain_06
(set-logic QF_UF)
(declare-sort U 0)
(declare-fun x0 () U)
(declare-fun x1 () U)
(declare-fun x2 () U)
(declare-fun x3 () U)
(declare-fun x4 () U)
(declare-fun x5 () U)
(assert (= x0 x1))
(assert (= x1 x2))
(assert (= x2 x3))
(assert (= x3 x4))
(assert (= x4 x5))
(check-sat)
(exit)
